%chk=anti_idbf_c2h_bq_traj.chk
%mem=128GB
%nprocshared=32
# nmr=giao B972/6-311+G(d,p)

Molecule with Bq points

0 1
H   0.707670  2.425460  0.000000
H  -0.707670 -2.425460  0.000000
C  -0.421530 -1.378400  0.000000
C   3.196630 -0.965910  0.000000
C   5.062000  0.147080  0.000000
C   0.953880 -1.025510  0.000000
C   1.360310  0.376750  0.000000
C   0.421530  1.378400  0.000000
C  -0.953880  1.025510  0.000000
C  -1.360310 -0.376750  0.000000
C   2.093040 -1.860920  0.000000
C   2.813390  0.366000  0.000000
C  -2.813390 -0.366000  0.000000
C  -2.093040  1.860920  0.000000
C  -3.196630  0.965910  0.000000
O   4.555450 -1.133540  0.000000
O  -4.555450  1.133540  0.000000
C  -4.027290 -1.122930  0.000000
C   4.027290  1.122930  0.000000
C  -5.062000 -0.147080  0.000000
C  -6.408830 -0.466400  0.000000
C  -6.734920 -1.821870  0.000000
H  -7.166990  0.306710  0.000000
C  -4.389040 -2.479800  0.000000
C  -5.737530 -2.812450  0.000000
H  -7.777890 -2.116170  0.000000
H  -3.630500 -3.253440  0.000000
H  -6.030130 -3.856120  0.000000
C   6.408830  0.466400  0.000000
C   4.389040  2.479800  0.000000
C   6.734920  1.821870  0.000000
H   7.166990 -0.306710  0.000000
C   5.737530  2.812450  0.000000
H   3.630500  3.253440  0.000000
H   7.777890  2.116170  0.000000
H   6.030130  3.856120  0.000000
C  -2.128050  3.343870  0.000000
C  -2.145660  4.046460  1.220730
C  -2.145660  4.046460 -1.220730
C  -2.169720  5.442740  1.196630
C  -2.169720  5.442740 -1.196630
C  -2.183300  6.160580  0.000000
H  -2.178730  5.981580  2.139600
H  -2.178730  5.981580 -2.139600
C   2.128050 -3.343870  0.000000
C   2.145660 -4.046460  1.220730
C   2.145660 -4.046460 -1.220730
C   2.169720 -5.442740  1.196630
C   2.169720 -5.442740 -1.196630
C   2.183300 -6.160580  0.000000
H   2.178730 -5.981580  2.139600
H   2.178730 -5.981580 -2.139600
C   2.243660 -7.669280  0.000000
H   1.758110 -8.088070 -0.884650
H   3.281910 -8.019250  0.000000
H   1.758110 -8.088070  0.884650
C  -2.243660  7.669280  0.000000
H  -1.758110  8.088070 -0.884650
H  -3.281910  8.019250  0.000000
H  -1.758110  8.088070  0.884650
C   2.145660 -3.313930  2.542330
H   3.028900 -2.675800  2.642430
H   1.271680 -2.664670  2.644100
H   2.144190 -4.018480  3.376010
C  -2.145660  3.313930  2.542330
H  -3.028900  2.675800  2.642430
H  -1.271680  2.664670  2.644100
H  -2.144190  4.018480  3.376010
C  -2.145660  3.313930 -2.542330
H  -1.271680  2.664670 -2.644100
H  -3.028900  2.675800 -2.642430
H  -2.144190  4.018480 -3.376010
C   2.145660 -3.313930 -2.542330
H   1.271680 -2.664670 -2.644100
H   3.028900 -2.675800 -2.642430
H   2.144190 -4.018480 -3.376010
Bq -6.236225 -2.317160  0.000000
Bq -6.222176 -2.303125  0.000000
Bq -6.208126 -2.289091  0.000000
Bq -6.194077 -2.275056  0.000000
Bq -6.180028 -2.261022  0.000000
Bq -6.165979 -2.246987  0.000000
Bq -6.151929 -2.232953  0.000000
Bq -6.137880 -2.218918  0.000000
Bq -6.123831 -2.204884  0.000000
Bq -6.109781 -2.190849  0.000000
Bq -6.095732 -2.176815  0.000000
Bq -6.081683 -2.162780  0.000000
Bq -6.067634 -2.148746  0.000000
Bq -6.053584 -2.134711  0.000000
Bq -6.039535 -2.120677  0.000000
Bq -6.025486 -2.106642  0.000000
Bq -6.011437 -2.092608  0.000000
Bq -5.997387 -2.078573  0.000000
Bq -5.983338 -2.064539  0.000000
Bq -5.969289 -2.050504  0.000000
Bq -5.955239 -2.036469  0.000000
Bq -5.941190 -2.022435  0.000000
Bq -5.927141 -2.008400  0.000000
Bq -5.913092 -1.994366  0.000000
Bq -5.899042 -1.980331  0.000000
Bq -5.884993 -1.966297  0.000000
Bq -5.870944 -1.952262  0.000000
Bq -5.856894 -1.938228  0.000000
Bq -5.842845 -1.924193  0.000000
Bq -5.828796 -1.910159  0.000000
Bq -5.814747 -1.896124  0.000000
Bq -5.800697 -1.882090  0.000000
Bq -5.786648 -1.868055  0.000000
Bq -5.772599 -1.854021  0.000000
Bq -5.758550 -1.839986  0.000000
Bq -5.744500 -1.825952  0.000000
Bq -5.730451 -1.811917  0.000000
Bq -5.716402 -1.797882  0.000000
Bq -5.702352 -1.783848  0.000000
Bq -5.688303 -1.769813  0.000000
Bq -5.674254 -1.755779  0.000000
Bq -5.660205 -1.741744  0.000000
Bq -5.646155 -1.727710  0.000000
Bq -5.632106 -1.713675  0.000000
Bq -5.618057 -1.699641  0.000000
Bq -5.604007 -1.685606  0.000000
Bq -5.589958 -1.671572  0.000000
Bq -5.575909 -1.657537  0.000000
Bq -5.561860 -1.643503  0.000000
Bq -5.547810 -1.629468  0.000000
Bq -5.533761 -1.615434  0.000000
Bq -5.519712 -1.601399  0.000000
Bq -5.505663 -1.587365  0.000000
Bq -5.491613 -1.573330  0.000000
Bq -5.477564 -1.559296  0.000000
Bq -5.463515 -1.545261  0.000000
Bq -5.449465 -1.531226  0.000000
Bq -5.435416 -1.517192  0.000000
Bq -5.421367 -1.503157  0.000000
Bq -5.407318 -1.489123  0.000000
Bq -5.393268 -1.475088  0.000000
Bq -5.379125 -1.461087  0.000000
Bq -5.364981 -1.447086  0.000000
Bq -5.350837 -1.433084  0.000000
Bq -5.336693 -1.419083  0.000000
Bq -5.322550 -1.405081  0.000000
Bq -5.308406 -1.391080  0.000000
Bq -5.294262 -1.377079  0.000000
Bq -5.280119 -1.363077  0.000000
Bq -5.265975 -1.349076  0.000000
Bq -5.251831 -1.335074  0.000000
Bq -5.237687 -1.321073  0.000000
Bq -5.223544 -1.307072  0.000000
Bq -5.209400 -1.293070  0.000000
Bq -5.195256 -1.279069  0.000000
Bq -5.181112 -1.265068  0.000000
Bq -5.166969 -1.251066  0.000000
Bq -5.152825 -1.237065  0.000000
Bq -5.138681 -1.223063  0.000000
Bq -5.124538 -1.209062  0.000000
Bq -5.110394 -1.195061  0.000000
Bq -5.096250 -1.181059  0.000000
Bq -5.082106 -1.167058  0.000000
Bq -5.067963 -1.153056  0.000000
Bq -5.053819 -1.139055  0.000000
Bq -5.039675 -1.125054  0.000000
Bq -5.025532 -1.111052  0.000000
Bq -5.011388 -1.097051  0.000000
Bq -4.997244 -1.083049  0.000000
Bq -4.983100 -1.069048  0.000000
Bq -4.968957 -1.055047  0.000000
Bq -4.954813 -1.041045  0.000000
Bq -4.940669 -1.027044  0.000000
Bq -4.926525 -1.013043  0.000000
Bq -4.912382 -0.999041  0.000000
Bq -4.898238 -0.985040  0.000000
Bq -4.884094 -0.971038  0.000000
Bq -4.869951 -0.957037  0.000000
Bq -4.855807 -0.943036  0.000000
Bq -4.841663 -0.929034  0.000000
Bq -4.827519 -0.915033  0.000000
Bq -4.813376 -0.901031  0.000000
Bq -4.799232 -0.887030  0.000000
Bq -4.785088 -0.873029  0.000000
Bq -4.770945 -0.859027  0.000000
Bq -4.756801 -0.845026  0.000000
Bq -4.742657 -0.831024  0.000000
Bq -4.728513 -0.817023  0.000000
Bq -4.714370 -0.803022  0.000000
Bq -4.700226 -0.789020  0.000000
Bq -4.686082 -0.775019  0.000000
Bq -4.671938 -0.761018  0.000000
Bq -4.657795 -0.747016  0.000000
Bq -4.643651 -0.733015  0.000000
Bq -4.629507 -0.719013  0.000000
Bq -4.615364 -0.705012  0.000000
Bq -4.601220 -0.691011  0.000000
Bq -4.587076 -0.677009  0.000000
Bq -4.572932 -0.663008  0.000000
Bq -4.558789 -0.649006  0.000000
Bq -4.544645 -0.635005  0.000000
Bq -4.531860 -0.619845  0.000000
Bq -4.519074 -0.604684  0.000000
Bq -4.506289 -0.589524  0.000000
Bq -4.493504 -0.574364  0.000000
Bq -4.480719 -0.559204  0.000000
Bq -4.467933 -0.544043  0.000000
Bq -4.455148 -0.528883  0.000000
Bq -4.442363 -0.513723  0.000000
Bq -4.429578 -0.498563  0.000000
Bq -4.416792 -0.483402  0.000000
Bq -4.404007 -0.468242  0.000000
Bq -4.391222 -0.453082  0.000000
Bq -4.378436 -0.437921  0.000000
Bq -4.365651 -0.422761  0.000000
Bq -4.352866 -0.407601  0.000000
Bq -4.340081 -0.392441  0.000000
Bq -4.327295 -0.377280  0.000000
Bq -4.314510 -0.362120  0.000000
Bq -4.301725 -0.346960  0.000000
Bq -4.288940 -0.331800  0.000000
Bq -4.276154 -0.316639  0.000000
Bq -4.263369 -0.301479  0.000000
Bq -4.250584 -0.286319  0.000000
Bq -4.237799 -0.271158  0.000000
Bq -4.225013 -0.255998  0.000000
Bq -4.212228 -0.240838  0.000000
Bq -4.199443 -0.225678  0.000000
Bq -4.186657 -0.210517  0.000000
Bq -4.173872 -0.195357  0.000000
Bq -4.161087 -0.180197  0.000000
Bq -4.148302 -0.165037  0.000000
Bq -4.135516 -0.149876  0.000000
Bq -4.122731 -0.134716  0.000000
Bq -4.109946 -0.119556  0.000000
Bq -4.097161 -0.104396  0.000000
Bq -4.084375 -0.089235  0.000000
Bq -4.071590 -0.074075  0.000000
Bq -4.058805 -0.058915  0.000000
Bq -4.046019 -0.043754  0.000000
Bq -4.033234 -0.028594  0.000000
Bq -4.020449 -0.013434  0.000000
Bq -4.007664  0.001726  0.000000
Bq -3.994878  0.016887  0.000000
Bq -3.982093  0.032047  0.000000
Bq -3.969308  0.047207  0.000000
Bq -3.956523  0.062367  0.000000
Bq -3.943737  0.077528  0.000000
Bq -3.930952  0.092688  0.000000
Bq -3.911662  0.097006  0.000000
Bq -3.892371  0.101324  0.000000
Bq -3.873081  0.105642  0.000000
Bq -3.853790  0.109960  0.000000
Bq -3.834500  0.114278  0.000000
Bq -3.815209  0.118596  0.000000
Bq -3.795919  0.122914  0.000000
Bq -3.776628  0.127233  0.000000
Bq -3.757338  0.131551  0.000000
Bq -3.738047  0.135869  0.000000
Bq -3.718757  0.140187  0.000000
Bq -3.699466  0.144505  0.000000
Bq -3.680176  0.148823  0.000000
Bq -3.660886  0.153141  0.000000
Bq -3.641595  0.157459  0.000000
Bq -3.622305  0.161777  0.000000
Bq -3.603014  0.166095  0.000000
Bq -3.583724  0.170413  0.000000
Bq -3.564433  0.174731  0.000000
Bq -3.545143  0.179049  0.000000
Bq -3.525852  0.183367  0.000000
Bq -3.506562  0.187685  0.000000
Bq -3.487271  0.192003  0.000000
Bq -3.467981  0.196322  0.000000
Bq -3.448691  0.200640  0.000000
Bq -3.429400  0.204958  0.000000
Bq -3.410110  0.209276  0.000000
Bq -3.390819  0.213594  0.000000
Bq -3.371529  0.217912  0.000000
Bq -3.352238  0.222230  0.000000
Bq -3.332948  0.226548  0.000000
Bq -3.313657  0.230866  0.000000
Bq -3.294367  0.235184  0.000000
Bq -3.275076  0.239502  0.000000
Bq -3.255786  0.243820  0.000000
Bq -3.236496  0.248138  0.000000
Bq -3.217205  0.252456  0.000000
Bq -3.197915  0.256774  0.000000
Bq -3.178624  0.261092  0.000000
Bq -3.159334  0.265411  0.000000
Bq -3.140043  0.269729  0.000000
Bq -3.120753  0.274047  0.000000
Bq -3.101462  0.278365  0.000000
Bq -3.082172  0.282683  0.000000
Bq -3.062881  0.287001  0.000000
Bq -3.043591  0.291319  0.000000
Bq -3.024300  0.295637  0.000000
Bq -3.005010  0.299955  0.000000
Bq -2.986203  0.306526  0.000000
Bq -2.967395  0.313096  0.000000
Bq -2.948588  0.319667  0.000000
Bq -2.929781  0.326238  0.000000
Bq -2.910973  0.332808  0.000000
Bq -2.892166  0.339379  0.000000
Bq -2.873359  0.345950  0.000000
Bq -2.854551  0.352520  0.000000
Bq -2.835744  0.359091  0.000000
Bq -2.816937  0.365662  0.000000
Bq -2.798129  0.372232  0.000000
Bq -2.779322  0.378803  0.000000
Bq -2.760514  0.385374  0.000000
Bq -2.741707  0.391944  0.000000
Bq -2.722900  0.398515  0.000000
Bq -2.704092  0.405086  0.000000
Bq -2.685285  0.411656  0.000000
Bq -2.666478  0.418227  0.000000
Bq -2.647670  0.424798  0.000000
Bq -2.628863  0.431368  0.000000
Bq -2.610056  0.437939  0.000000
Bq -2.591248  0.444510  0.000000
Bq -2.572441  0.451080  0.000000
Bq -2.553634  0.457651  0.000000
Bq -2.534826  0.464222  0.000000
Bq -2.516019  0.470793  0.000000
Bq -2.497212  0.477363  0.000000
Bq -2.478404  0.483934  0.000000
Bq -2.459597  0.490505  0.000000
Bq -2.440790  0.497075  0.000000
Bq -2.421982  0.503646  0.000000
Bq -2.403175  0.510217  0.000000
Bq -2.384368  0.516787  0.000000
Bq -2.365560  0.523358  0.000000
Bq -2.346753  0.529929  0.000000
Bq -2.327946  0.536499  0.000000
Bq -2.309138  0.543070  0.000000
Bq -2.290331  0.549641  0.000000
Bq -2.271523  0.556211  0.000000
Bq -2.252716  0.562782  0.000000
Bq -2.233909  0.569353  0.000000
Bq -2.215101  0.575923  0.000000
Bq -2.196294  0.582494  0.000000
Bq -2.177487  0.589065  0.000000
Bq -2.158679  0.595635  0.000000
Bq -2.139872  0.602206  0.000000
Bq -2.121065  0.608777  0.000000
Bq -2.102257  0.615347  0.000000
Bq -2.083450  0.621918  0.000000
Bq -2.064545  0.615846  0.000000
Bq -2.045640  0.609774  0.000000
Bq -2.026734  0.603701  0.000000
Bq -2.007829  0.597629  0.000000
Bq -1.988924  0.591557  0.000000
Bq -1.970019  0.585485  0.000000
Bq -1.951114  0.579413  0.000000
Bq -1.932208  0.573340  0.000000
Bq -1.913303  0.567268  0.000000
Bq -1.894398  0.561196  0.000000
Bq -1.875493  0.555124  0.000000
Bq -1.856588  0.549052  0.000000
Bq -1.837682  0.542979  0.000000
Bq -1.818777  0.536907  0.000000
Bq -1.799872  0.530835  0.000000
Bq -1.780967  0.524763  0.000000
Bq -1.762062  0.518691  0.000000
Bq -1.743156  0.512618  0.000000
Bq -1.724251  0.506546  0.000000
Bq -1.705346  0.500474  0.000000
Bq -1.686441  0.494402  0.000000
Bq -1.667536  0.488330  0.000000
Bq -1.648630  0.482257  0.000000
Bq -1.629725  0.476185  0.000000
Bq -1.610820  0.470113  0.000000
Bq -1.591915  0.464041  0.000000
Bq -1.573009  0.457968  0.000000
Bq -1.554104  0.451896  0.000000
Bq -1.535199  0.445824  0.000000
Bq -1.516294  0.439752  0.000000
Bq -1.497389  0.433680  0.000000
Bq -1.478483  0.427607  0.000000
Bq -1.459578  0.421535  0.000000
Bq -1.440673  0.415463  0.000000
Bq -1.421768  0.409391  0.000000
Bq -1.402863  0.403319  0.000000
Bq -1.383957  0.397246  0.000000
Bq -1.365052  0.391174  0.000000
Bq -1.346147  0.385102  0.000000
Bq -1.327242  0.379030  0.000000
Bq -1.308337  0.372958  0.000000
Bq -1.289431  0.366885  0.000000
Bq -1.270526  0.360813  0.000000
Bq -1.251621  0.354741  0.000000
Bq -1.232716  0.348669  0.000000
Bq -1.213811  0.342597  0.000000
Bq -1.194905  0.336524  0.000000
Bq -1.176000  0.330452  0.000000
Bq -1.157095  0.324380  0.000000
Bq -1.138126  0.319062  0.000000
Bq -1.119157  0.313745  0.000000
Bq -1.100189  0.308427  0.000000
Bq -1.081220  0.303109  0.000000
Bq -1.062251  0.297791  0.000000
Bq -1.043282  0.292474  0.000000
Bq -1.024314  0.287156  0.000000
Bq -1.005345  0.281838  0.000000
Bq -0.986376  0.276521  0.000000
Bq -0.967407  0.271203  0.000000
Bq -0.948439  0.265885  0.000000
Bq -0.929470  0.260568  0.000000
Bq -0.910501  0.255250  0.000000
Bq -0.891532  0.249932  0.000000
Bq -0.872563  0.244614  0.000000
Bq -0.853595  0.239297  0.000000
Bq -0.834626  0.233979  0.000000
Bq -0.815657  0.228661  0.000000
Bq -0.796688  0.223344  0.000000
Bq -0.777720  0.218026  0.000000
Bq -0.758751  0.212708  0.000000
Bq -0.739782  0.207390  0.000000
Bq -0.720813  0.202073  0.000000
Bq -0.701845  0.196755  0.000000
Bq -0.682876  0.191437  0.000000
Bq -0.663907  0.186120  0.000000
Bq -0.644938  0.180802  0.000000
Bq -0.625969  0.175484  0.000000
Bq -0.607001  0.170167  0.000000
Bq -0.588032  0.164849  0.000000
Bq -0.569063  0.159531  0.000000
Bq -0.550094  0.154213  0.000000
Bq -0.531126  0.148896  0.000000
Bq -0.512157  0.143578  0.000000
Bq -0.493188  0.138260  0.000000
Bq -0.474219  0.132943  0.000000
Bq -0.455250  0.127625  0.000000
Bq -0.436282  0.122307  0.000000
Bq -0.417313  0.116990  0.000000
Bq -0.398344  0.111672  0.000000
Bq -0.379375  0.106354  0.000000
Bq -0.360407  0.101036  0.000000
Bq -0.341438  0.095719  0.000000
Bq -0.322469  0.090401  0.000000
Bq -0.303500  0.085083  0.000000
Bq -0.284532  0.079766  0.000000
Bq -0.265563  0.074448  0.000000
Bq -0.246594  0.069130  0.000000
Bq -0.227625  0.063812  0.000000
Bq -0.208656  0.058495  0.000000
Bq -0.189688  0.053177  0.000000
Bq -0.170719  0.047859  0.000000
Bq -0.151750  0.042542  0.000000
Bq -0.132781  0.037224  0.000000
Bq -0.113813  0.031906  0.000000
Bq -0.094844  0.026589  0.000000
Bq -0.075875  0.021271  0.000000
Bq -0.056906  0.015953  0.000000
Bq -0.037938  0.010635  0.000000
Bq -0.018969  0.005318  0.000000
Bq  0.000000  0.000000  0.000000
Bq  0.018969 -0.005318  0.000000
Bq  0.037938 -0.010635  0.000000
Bq  0.056906 -0.015953  0.000000
Bq  0.075875 -0.021271  0.000000
Bq  0.094844 -0.026589  0.000000
Bq  0.113813 -0.031906  0.000000
Bq  0.132781 -0.037224  0.000000
Bq  0.151750 -0.042542  0.000000
Bq  0.170719 -0.047859  0.000000
Bq  0.189688 -0.053177  0.000000
Bq  0.208656 -0.058495  0.000000
Bq  0.227625 -0.063812  0.000000
Bq  0.246594 -0.069130  0.000000
Bq  0.265563 -0.074448  0.000000
Bq  0.284532 -0.079766  0.000000
Bq  0.303500 -0.085083  0.000000
Bq  0.322469 -0.090401  0.000000
Bq  0.341438 -0.095719  0.000000
Bq  0.360407 -0.101036  0.000000
Bq  0.379375 -0.106354  0.000000
Bq  0.398344 -0.111672  0.000000
Bq  0.417313 -0.116990  0.000000
Bq  0.436282 -0.122307  0.000000
Bq  0.455250 -0.127625  0.000000
Bq  0.474219 -0.132943  0.000000
Bq  0.493188 -0.138260  0.000000
Bq  0.512157 -0.143578  0.000000
Bq  0.531126 -0.148896  0.000000
Bq  0.550094 -0.154213  0.000000
Bq  0.569063 -0.159531  0.000000
Bq  0.588032 -0.164849  0.000000
Bq  0.607001 -0.170167  0.000000
Bq  0.625969 -0.175484  0.000000
Bq  0.644938 -0.180802  0.000000
Bq  0.663907 -0.186120  0.000000
Bq  0.682876 -0.191437  0.000000
Bq  0.701845 -0.196755  0.000000
Bq  0.720813 -0.202073  0.000000
Bq  0.739782 -0.207390  0.000000
Bq  0.758751 -0.212708  0.000000
Bq  0.777720 -0.218026  0.000000
Bq  0.796688 -0.223344  0.000000
Bq  0.815657 -0.228661  0.000000
Bq  0.834626 -0.233979  0.000000
Bq  0.853595 -0.239297  0.000000
Bq  0.872563 -0.244614  0.000000
Bq  0.891532 -0.249932  0.000000
Bq  0.910501 -0.255250  0.000000
Bq  0.929470 -0.260568  0.000000
Bq  0.948439 -0.265885  0.000000
Bq  0.967407 -0.271203  0.000000
Bq  0.986376 -0.276521  0.000000
Bq  1.005345 -0.281838  0.000000
Bq  1.024314 -0.287156  0.000000
Bq  1.043282 -0.292474  0.000000
Bq  1.062251 -0.297791  0.000000
Bq  1.081220 -0.303109  0.000000
Bq  1.100189 -0.308427  0.000000
Bq  1.119157 -0.313745  0.000000
Bq  1.138126 -0.319062  0.000000
Bq  1.157095 -0.324380  0.000000
Bq  1.176000 -0.330452  0.000000
Bq  1.194905 -0.336524  0.000000
Bq  1.213811 -0.342597  0.000000
Bq  1.232716 -0.348669  0.000000
Bq  1.251621 -0.354741  0.000000
Bq  1.270526 -0.360813  0.000000
Bq  1.289431 -0.366885  0.000000
Bq  1.308337 -0.372958  0.000000
Bq  1.327242 -0.379030  0.000000
Bq  1.346147 -0.385102  0.000000
Bq  1.365052 -0.391174  0.000000
Bq  1.383957 -0.397246  0.000000
Bq  1.402863 -0.403319  0.000000
Bq  1.421768 -0.409391  0.000000
Bq  1.440673 -0.415463  0.000000
Bq  1.459578 -0.421535  0.000000
Bq  1.478483 -0.427607  0.000000
Bq  1.497389 -0.433680  0.000000
Bq  1.516294 -0.439752  0.000000
Bq  1.535199 -0.445824  0.000000
Bq  1.554104 -0.451896  0.000000
Bq  1.573009 -0.457968  0.000000
Bq  1.591915 -0.464041  0.000000
Bq  1.610820 -0.470113  0.000000
Bq  1.629725 -0.476185  0.000000
Bq  1.648630 -0.482257  0.000000
Bq  1.667536 -0.488330  0.000000
Bq  1.686441 -0.494402  0.000000
Bq  1.705346 -0.500474  0.000000
Bq  1.724251 -0.506546  0.000000
Bq  1.743156 -0.512618  0.000000
Bq  1.762062 -0.518691  0.000000
Bq  1.780967 -0.524763  0.000000
Bq  1.799872 -0.530835  0.000000
Bq  1.818777 -0.536907  0.000000
Bq  1.837682 -0.542979  0.000000
Bq  1.856588 -0.549052  0.000000
Bq  1.875493 -0.555124  0.000000
Bq  1.894398 -0.561196  0.000000
Bq  1.913303 -0.567268  0.000000
Bq  1.932208 -0.573340  0.000000
Bq  1.951114 -0.579413  0.000000
Bq  1.970019 -0.585485  0.000000
Bq  1.988924 -0.591557  0.000000
Bq  2.007829 -0.597629  0.000000
Bq  2.026734 -0.603701  0.000000
Bq  2.045640 -0.609774  0.000000
Bq  2.064545 -0.615846  0.000000
Bq  2.083450 -0.621918  0.000000
Bq  2.102257 -0.615347  0.000000
Bq  2.121065 -0.608777  0.000000
Bq  2.139872 -0.602206  0.000000
Bq  2.158679 -0.595635  0.000000
Bq  2.177487 -0.589065  0.000000
Bq  2.196294 -0.582494  0.000000
Bq  2.215101 -0.575923  0.000000
Bq  2.233909 -0.569353  0.000000
Bq  2.252716 -0.562782  0.000000
Bq  2.271523 -0.556211  0.000000
Bq  2.290331 -0.549641  0.000000
Bq  2.309138 -0.543070  0.000000
Bq  2.327946 -0.536499  0.000000
Bq  2.346753 -0.529929  0.000000
Bq  2.365560 -0.523358  0.000000
Bq  2.384368 -0.516787  0.000000
Bq  2.403175 -0.510217  0.000000
Bq  2.421982 -0.503646  0.000000
Bq  2.440790 -0.497075  0.000000
Bq  2.459597 -0.490505  0.000000
Bq  2.478404 -0.483934  0.000000
Bq  2.497212 -0.477363  0.000000
Bq  2.516019 -0.470793  0.000000
Bq  2.534826 -0.464222  0.000000
Bq  2.553634 -0.457651  0.000000
Bq  2.572441 -0.451080  0.000000
Bq  2.591248 -0.444510  0.000000
Bq  2.610056 -0.437939  0.000000
Bq  2.628863 -0.431368  0.000000
Bq  2.647670 -0.424798  0.000000
Bq  2.666478 -0.418227  0.000000
Bq  2.685285 -0.411656  0.000000
Bq  2.704092 -0.405086  0.000000
Bq  2.722900 -0.398515  0.000000
Bq  2.741707 -0.391944  0.000000
Bq  2.760514 -0.385374  0.000000
Bq  2.779322 -0.378803  0.000000
Bq  2.798129 -0.372232  0.000000
Bq  2.816937 -0.365662  0.000000
Bq  2.835744 -0.359091  0.000000
Bq  2.854551 -0.352520  0.000000
Bq  2.873359 -0.345950  0.000000
Bq  2.892166 -0.339379  0.000000
Bq  2.910973 -0.332808  0.000000
Bq  2.929781 -0.326238  0.000000
Bq  2.948588 -0.319667  0.000000
Bq  2.967395 -0.313096  0.000000
Bq  2.986203 -0.306526  0.000000
Bq  3.005010 -0.299955  0.000000
Bq  3.024300 -0.295637  0.000000
Bq  3.043591 -0.291319  0.000000
Bq  3.062881 -0.287001  0.000000
Bq  3.082172 -0.282683  0.000000
Bq  3.101462 -0.278365  0.000000
Bq  3.120753 -0.274047  0.000000
Bq  3.140043 -0.269729  0.000000
Bq  3.159334 -0.265411  0.000000
Bq  3.178624 -0.261092  0.000000
Bq  3.197915 -0.256774  0.000000
Bq  3.217205 -0.252456  0.000000
Bq  3.236496 -0.248138  0.000000
Bq  3.255786 -0.243820  0.000000
Bq  3.275076 -0.239502  0.000000
Bq  3.294367 -0.235184  0.000000
Bq  3.313657 -0.230866  0.000000
Bq  3.332948 -0.226548  0.000000
Bq  3.352238 -0.222230  0.000000
Bq  3.371529 -0.217912  0.000000
Bq  3.390819 -0.213594  0.000000
Bq  3.410110 -0.209276  0.000000
Bq  3.429400 -0.204958  0.000000
Bq  3.448691 -0.200640  0.000000
Bq  3.467981 -0.196322  0.000000
Bq  3.487271 -0.192003  0.000000
Bq  3.506562 -0.187685  0.000000
Bq  3.525852 -0.183367  0.000000
Bq  3.545143 -0.179049  0.000000
Bq  3.564433 -0.174731  0.000000
Bq  3.583724 -0.170413  0.000000
Bq  3.603014 -0.166095  0.000000
Bq  3.622305 -0.161777  0.000000
Bq  3.641595 -0.157459  0.000000
Bq  3.660886 -0.153141  0.000000
Bq  3.680176 -0.148823  0.000000
Bq  3.699467 -0.144505  0.000000
Bq  3.718757 -0.140187  0.000000
Bq  3.738047 -0.135869  0.000000
Bq  3.757338 -0.131551  0.000000
Bq  3.776628 -0.127233  0.000000
Bq  3.795919 -0.122914  0.000000
Bq  3.815209 -0.118596  0.000000
Bq  3.834500 -0.114278  0.000000
Bq  3.853790 -0.109960  0.000000
Bq  3.873081 -0.105642  0.000000
Bq  3.892371 -0.101324  0.000000
Bq  3.911662 -0.097006  0.000000
Bq  3.930952 -0.092688  0.000000
Bq  3.943737 -0.077528  0.000000
Bq  3.956523 -0.062367  0.000000
Bq  3.969308 -0.047207  0.000000
Bq  3.982093 -0.032047  0.000000
Bq  3.994878 -0.016887  0.000000
Bq  4.007664 -0.001726  0.000000
Bq  4.020449  0.013434  0.000000
Bq  4.033234  0.028594  0.000000
Bq  4.046019  0.043754  0.000000
Bq  4.058805  0.058915  0.000000
Bq  4.071590  0.074075  0.000000
Bq  4.084375  0.089235  0.000000
Bq  4.097161  0.104396  0.000000
Bq  4.109946  0.119556  0.000000
Bq  4.122731  0.134716  0.000000
Bq  4.135516  0.149876  0.000000
Bq  4.148302  0.165037  0.000000
Bq  4.161087  0.180197  0.000000
Bq  4.173872  0.195357  0.000000
Bq  4.186657  0.210517  0.000000
Bq  4.199443  0.225678  0.000000
Bq  4.212228  0.240838  0.000000
Bq  4.225013  0.255998  0.000000
Bq  4.237799  0.271158  0.000000
Bq  4.250584  0.286319  0.000000
Bq  4.263369  0.301479  0.000000
Bq  4.276154  0.316639  0.000000
Bq  4.288940  0.331800  0.000000
Bq  4.301725  0.346960  0.000000
Bq  4.314510  0.362120  0.000000
Bq  4.327295  0.377280  0.000000
Bq  4.340081  0.392441  0.000000
Bq  4.352866  0.407601  0.000000
Bq  4.365651  0.422761  0.000000
Bq  4.378436  0.437921  0.000000
Bq  4.391222  0.453082  0.000000
Bq  4.404007  0.468242  0.000000
Bq  4.416792  0.483402  0.000000
Bq  4.429578  0.498563  0.000000
Bq  4.442363  0.513723  0.000000
Bq  4.455148  0.528883  0.000000
Bq  4.467933  0.544043  0.000000
Bq  4.480719  0.559204  0.000000
Bq  4.493504  0.574364  0.000000
Bq  4.506289  0.589524  0.000000
Bq  4.519074  0.604684  0.000000
Bq  4.531860  0.619845  0.000000
Bq  4.544645  0.635005  0.000000
Bq  4.558789  0.649006  0.000000
Bq  4.572932  0.663008  0.000000
Bq  4.587076  0.677009  0.000000
Bq  4.601220  0.691011  0.000000
Bq  4.615364  0.705012  0.000000
Bq  4.629507  0.719013  0.000000
Bq  4.643651  0.733015  0.000000
Bq  4.657795  0.747016  0.000000
Bq  4.671938  0.761018  0.000000
Bq  4.686082  0.775019  0.000000
Bq  4.700226  0.789020  0.000000
Bq  4.714370  0.803022  0.000000
Bq  4.728513  0.817023  0.000000
Bq  4.742657  0.831024  0.000000
Bq  4.756801  0.845026  0.000000
Bq  4.770945  0.859027  0.000000
Bq  4.785088  0.873029  0.000000
Bq  4.799232  0.887030  0.000000
Bq  4.813376  0.901031  0.000000
Bq  4.827519  0.915033  0.000000
Bq  4.841663  0.929034  0.000000
Bq  4.855807  0.943036  0.000000
Bq  4.869951  0.957037  0.000000
Bq  4.884094  0.971038  0.000000
Bq  4.898238  0.985040  0.000000
Bq  4.912382  0.999041  0.000000
Bq  4.926525  1.013043  0.000000
Bq  4.940669  1.027044  0.000000
Bq  4.954813  1.041045  0.000000
Bq  4.968957  1.055047  0.000000
Bq  4.983100  1.069048  0.000000
Bq  4.997244  1.083049  0.000000
Bq  5.011388  1.097051  0.000000
Bq  5.025532  1.111052  0.000000
Bq  5.039675  1.125054  0.000000
Bq  5.053819  1.139055  0.000000
Bq  5.067963  1.153056  0.000000
Bq  5.082106  1.167058  0.000000
Bq  5.096250  1.181059  0.000000
Bq  5.110394  1.195061  0.000000
Bq  5.124538  1.209062  0.000000
Bq  5.138681  1.223063  0.000000
Bq  5.152825  1.237065  0.000000
Bq  5.166969  1.251066  0.000000
Bq  5.181112  1.265067  0.000000
Bq  5.195256  1.279069  0.000000
Bq  5.209400  1.293070  0.000000
Bq  5.223544  1.307072  0.000000
Bq  5.237687  1.321073  0.000000
Bq  5.251831  1.335074  0.000000
Bq  5.265975  1.349076  0.000000
Bq  5.280119  1.363077  0.000000
Bq  5.294262  1.377079  0.000000
Bq  5.308406  1.391080  0.000000
Bq  5.322550  1.405081  0.000000
Bq  5.336693  1.419083  0.000000
Bq  5.350837  1.433084  0.000000
Bq  5.364981  1.447086  0.000000
Bq  5.379125  1.461087  0.000000
Bq  5.393268  1.475088  0.000000
Bq  5.407318  1.489123  0.000000
Bq  5.421367  1.503157  0.000000
Bq  5.435416  1.517192  0.000000
Bq  5.449465  1.531226  0.000000
Bq  5.463515  1.545261  0.000000
Bq  5.477564  1.559295  0.000000
Bq  5.491613  1.573330  0.000000
Bq  5.505663  1.587365  0.000000
Bq  5.519712  1.601399  0.000000
Bq  5.533761  1.615434  0.000000
Bq  5.547810  1.629468  0.000000
Bq  5.561860  1.643503  0.000000
Bq  5.575909  1.657537  0.000000
Bq  5.589958  1.671572  0.000000
Bq  5.604007  1.685606  0.000000
Bq  5.618057  1.699641  0.000000
Bq  5.632106  1.713675  0.000000
Bq  5.646155  1.727710  0.000000
Bq  5.660205  1.741744  0.000000
Bq  5.674254  1.755779  0.000000
Bq  5.688303  1.769813  0.000000
Bq  5.702352  1.783848  0.000000
Bq  5.716402  1.797882  0.000000
Bq  5.730451  1.811917  0.000000
Bq  5.744500  1.825952  0.000000
Bq  5.758550  1.839986  0.000000
Bq  5.772599  1.854021  0.000000
Bq  5.786648  1.868055  0.000000
Bq  5.800697  1.882090  0.000000
Bq  5.814747  1.896124  0.000000
Bq  5.828796  1.910159  0.000000
Bq  5.842845  1.924193  0.000000
Bq  5.856894  1.938228  0.000000
Bq  5.870944  1.952262  0.000000
Bq  5.884993  1.966297  0.000000
Bq  5.899042  1.980331  0.000000
Bq  5.913092  1.994366  0.000000
Bq  5.927141  2.008400  0.000000
Bq  5.941190  2.022435  0.000000
Bq  5.955239  2.036469  0.000000
Bq  5.969289  2.050504  0.000000
Bq  5.983338  2.064539  0.000000
Bq  5.997387  2.078573  0.000000
Bq  6.011437  2.092608  0.000000
Bq  6.025486  2.106642  0.000000
Bq  6.039535  2.120677  0.000000
Bq  6.053584  2.134711  0.000000
Bq  6.067634  2.148746  0.000000
Bq  6.081683  2.162780  0.000000
Bq  6.095732  2.176815  0.000000
Bq  6.109781  2.190849  0.000000
Bq  6.123831  2.204884  0.000000
Bq  6.137880  2.218918  0.000000
Bq  6.151929  2.232953  0.000000
Bq  6.165979  2.246987  0.000000
Bq  6.180028  2.261022  0.000000
Bq  6.194077  2.275056  0.000000
Bq  6.208126  2.289091  0.000000
Bq  6.222176  2.303125  0.000000
Bq  6.236225  2.317160  0.000000

