%mem=4GB
%nprocshared=4
#p NMR=GIAO B972/6-311+G(d,p) Geom=connectivity

Molecule with Bq points

0 1
C     -3.656010    -0.712480    -0.000220
C     -2.477100    -1.405260    -0.000320
C     -1.222110    -0.721450    -0.000140
C     -1.222080     0.721420     0.000060
C     -2.477080     1.405370     0.000210
C     -3.655920     0.712480     0.000100
C     -0.000020    -1.402010    -0.000250
C      0.000020     1.402030     0.000250
C      1.222100     0.721350     0.000190
C      1.222080    -0.721500    -0.000110
C      2.477170    -1.405340    -0.000190
H      2.476310    -2.490410    -0.000320
C      3.655960    -0.712450    -0.000050
C      3.655970     0.712600     0.000170
C      2.477030     1.405280     0.000300
H      0.000020    -2.487940    -0.000360
H     -4.600570    -1.244660    -0.000320
H     -2.476320    -2.490400    -0.000560
H     -2.476470     2.490410     0.000340
H     -4.600600     1.244520     0.000170
H     -0.000010     2.487900     0.000440
H      4.600630    -1.244480    -0.000220
H      4.600680     1.244500     0.000330
H      2.476290     2.490400     0.000450
Bq    -3.066555    -1.058870     0.999730
Bq    -3.056638    -1.041791     0.999734
Bq    -3.046722    -1.024712     0.999737
Bq    -3.036805    -1.007634     0.999741
Bq    -3.026888    -0.990555     0.999744
Bq    -3.016971    -0.973476     0.999748
Bq    -3.007055    -0.956397     0.999751
Bq    -2.997138    -0.939319     0.999755
Bq    -2.987221    -0.922240     0.999758
Bq    -2.977304    -0.905161     0.999762
Bq    -2.967388    -0.888082     0.999765
Bq    -2.957471    -0.871004     0.999769
Bq    -2.947554    -0.853925     0.999772
Bq    -2.937637    -0.836846     0.999776
Bq    -2.927721    -0.819767     0.999779
Bq    -2.917804    -0.802689     0.999783
Bq    -2.907887    -0.785610     0.999786
Bq    -2.897970    -0.768531     0.999790
Bq    -2.888054    -0.751452     0.999793
Bq    -2.878137    -0.734373     0.999797
Bq    -2.868220    -0.717295     0.999800
Bq    -2.858303    -0.700216     0.999804
Bq    -2.848387    -0.683137     0.999807
Bq    -2.838470    -0.666058     0.999811
Bq    -2.828553    -0.648980     0.999815
Bq    -2.818636    -0.631901     0.999818
Bq    -2.808720    -0.614822     0.999822
Bq    -2.798803    -0.597743     0.999825
Bq    -2.788886    -0.580665     0.999829
Bq    -2.778969    -0.563586     0.999832
Bq    -2.769053    -0.546507     0.999836
Bq    -2.759136    -0.529428     0.999839
Bq    -2.749219    -0.512350     0.999843
Bq    -2.739302    -0.495271     0.999846
Bq    -2.729386    -0.478192     0.999850
Bq    -2.719469    -0.461113     0.999853
Bq    -2.709552    -0.444035     0.999857
Bq    -2.699635    -0.426956     0.999860
Bq    -2.689719    -0.409877     0.999864
Bq    -2.679802    -0.392798     0.999867
Bq    -2.669885    -0.375719     0.999871
Bq    -2.659968    -0.358641     0.999874
Bq    -2.650052    -0.341562     0.999878
Bq    -2.640135    -0.324483     0.999881
Bq    -2.630218    -0.307404     0.999885
Bq    -2.620301    -0.290326     0.999888
Bq    -2.610385    -0.273247     0.999892
Bq    -2.600468    -0.256168     0.999896
Bq    -2.590551    -0.239089     0.999899
Bq    -2.580634    -0.222011     0.999903
Bq    -2.570718    -0.204932     0.999906
Bq    -2.560801    -0.187853     0.999910
Bq    -2.550884    -0.170774     0.999913
Bq    -2.540967    -0.153696     0.999917
Bq    -2.531051    -0.136617     0.999920
Bq    -2.521134    -0.119538     0.999924
Bq    -2.511217    -0.102459     0.999927
Bq    -2.501300    -0.085380     0.999931
Bq    -2.491384    -0.068302     0.999934
Bq    -2.481467    -0.051223     0.999938
Bq    -2.471550    -0.034144     0.999941
Bq    -2.461633    -0.017065     0.999945
Bq    -2.451717     0.000013     0.999948
Bq    -2.431884     0.000013     0.999949
Bq    -2.412051     0.000012     0.999949
Bq    -2.392219     0.000012     0.999949
Bq    -2.372386     0.000012     0.999949
Bq    -2.352554     0.000011     0.999949
Bq    -2.332721     0.000011     0.999949
Bq    -2.312888     0.000010     0.999950
Bq    -2.293056     0.000010     0.999950
Bq    -2.273223     0.000009     0.999950
Bq    -2.253391     0.000009     0.999950
Bq    -2.233558     0.000008     0.999950
Bq    -2.213725     0.000008     0.999951
Bq    -2.193893     0.000007     0.999951
Bq    -2.174060     0.000007     0.999951
Bq    -2.154228     0.000006     0.999951
Bq    -2.134395     0.000006     0.999951
Bq    -2.114562     0.000006     0.999952
Bq    -2.094730     0.000005     0.999952
Bq    -2.074897     0.000005     0.999952
Bq    -2.055065     0.000004     0.999952
Bq    -2.035232     0.000004     0.999952
Bq    -2.015399     0.000003     0.999952
Bq    -1.995567     0.000003     0.999953
Bq    -1.975734     0.000002     0.999953
Bq    -1.955901     0.000002     0.999953
Bq    -1.936069     0.000001     0.999953
Bq    -1.916236     0.000001     0.999953
Bq    -1.896404     0.000001     0.999954
Bq    -1.876571     0.000000     0.999954
Bq    -1.856738    -0.000000     0.999954
Bq    -1.836906    -0.000001     0.999954
Bq    -1.817073    -0.000001     0.999954
Bq    -1.797241    -0.000002     0.999955
Bq    -1.777408    -0.000002     0.999955
Bq    -1.757575    -0.000003     0.999955
Bq    -1.737743    -0.000003     0.999955
Bq    -1.717910    -0.000004     0.999955
Bq    -1.698078    -0.000004     0.999955
Bq    -1.678245    -0.000004     0.999956
Bq    -1.658412    -0.000005     0.999956
Bq    -1.638580    -0.000005     0.999956
Bq    -1.618747    -0.000006     0.999956
Bq    -1.598915    -0.000006     0.999956
Bq    -1.579082    -0.000007     0.999957
Bq    -1.559249    -0.000007     0.999957
Bq    -1.539417    -0.000008     0.999957
Bq    -1.519584    -0.000008     0.999957
Bq    -1.499752    -0.000009     0.999957
Bq    -1.479919    -0.000009     0.999958
Bq    -1.460086    -0.000010     0.999958
Bq    -1.440254    -0.000010     0.999958
Bq    -1.420421    -0.000010     0.999958
Bq    -1.400588    -0.000011     0.999958
Bq    -1.380756    -0.000011     0.999958
Bq    -1.360923    -0.000012     0.999959
Bq    -1.341091    -0.000012     0.999959
Bq    -1.321258    -0.000013     0.999959
Bq    -1.301425    -0.000013     0.999959
Bq    -1.281593    -0.000014     0.999959
Bq    -1.261760    -0.000014     0.999960
Bq    -1.241928    -0.000015     0.999960
Bq    -1.222095    -0.000015     0.999960
Bq    -1.202384    -0.000015     0.999961
Bq    -1.182673    -0.000015     0.999961
Bq    -1.162961    -0.000016     0.999962
Bq    -1.143250    -0.000016     0.999963
Bq    -1.123539    -0.000016     0.999963
Bq    -1.103828    -0.000016     0.999964
Bq    -1.084117    -0.000016     0.999965
Bq    -1.064406    -0.000017     0.999965
Bq    -1.044694    -0.000017     0.999966
Bq    -1.024983    -0.000017     0.999966
Bq    -1.005272    -0.000017     0.999967
Bq    -0.985561    -0.000017     0.999968
Bq    -0.965850    -0.000017     0.999968
Bq    -0.946138    -0.000018     0.999969
Bq    -0.926427    -0.000018     0.999970
Bq    -0.906716    -0.000018     0.999970
Bq    -0.887005    -0.000018     0.999971
Bq    -0.867294    -0.000018     0.999972
Bq    -0.847583    -0.000019     0.999972
Bq    -0.827871    -0.000019     0.999973
Bq    -0.808160    -0.000019     0.999974
Bq    -0.788449    -0.000019     0.999974
Bq    -0.768738    -0.000019     0.999975
Bq    -0.749027    -0.000020     0.999975
Bq    -0.729315    -0.000020     0.999976
Bq    -0.709604    -0.000020     0.999977
Bq    -0.689893    -0.000020     0.999977
Bq    -0.670182    -0.000020     0.999978
Bq    -0.650471    -0.000020     0.999979
Bq    -0.630760    -0.000021     0.999979
Bq    -0.611048    -0.000021     0.999980
Bq    -0.591337    -0.000021     0.999981
Bq    -0.571626    -0.000021     0.999981
Bq    -0.551915    -0.000021     0.999982
Bq    -0.532204    -0.000022     0.999983
Bq    -0.512492    -0.000022     0.999983
Bq    -0.492781    -0.000022     0.999984
Bq    -0.473070    -0.000022     0.999985
Bq    -0.453359    -0.000022     0.999985
Bq    -0.433648    -0.000023     0.999986
Bq    -0.413937    -0.000023     0.999986
Bq    -0.394225    -0.000023     0.999987
Bq    -0.374514    -0.000023     0.999988
Bq    -0.354803    -0.000023     0.999988
Bq    -0.335092    -0.000023     0.999989
Bq    -0.315381    -0.000024     0.999990
Bq    -0.295669    -0.000024     0.999990
Bq    -0.275958    -0.000024     0.999991
Bq    -0.256247    -0.000024     0.999992
Bq    -0.236536    -0.000024     0.999992
Bq    -0.216825    -0.000025     0.999993
Bq    -0.197113    -0.000025     0.999994
Bq    -0.177402    -0.000025     0.999994
Bq    -0.157691    -0.000025     0.999995
Bq    -0.137980    -0.000025     0.999995
Bq    -0.118269    -0.000026     0.999996
Bq    -0.098558    -0.000026     0.999997
Bq    -0.078846    -0.000026     0.999997
Bq    -0.059135    -0.000026     0.999998
Bq    -0.039424    -0.000026     0.999999
Bq    -0.019713    -0.000026     0.999999
Bq    -0.000002    -0.000027     1.000000
Bq     0.019709    -0.000027     1.000001
Bq     0.039421    -0.000028     1.000001
Bq     0.059132    -0.000029     1.000002
Bq     0.078843    -0.000030     1.000003
Bq     0.098554    -0.000031     1.000003
Bq     0.118265    -0.000031     1.000004
Bq     0.137976    -0.000032     1.000005
Bq     0.157688    -0.000033     1.000005
Bq     0.177399    -0.000034     1.000006
Bq     0.197110    -0.000034     1.000006
Bq     0.216821    -0.000035     1.000007
Bq     0.236532    -0.000036     1.000008
Bq     0.256243    -0.000037     1.000008
Bq     0.275955    -0.000038     1.000009
Bq     0.295666    -0.000038     1.000010
Bq     0.315377    -0.000039     1.000010
Bq     0.335088    -0.000040     1.000011
Bq     0.354799    -0.000041     1.000012
Bq     0.374510    -0.000041     1.000012
Bq     0.394221    -0.000042     1.000013
Bq     0.413933    -0.000043     1.000014
Bq     0.433644    -0.000044     1.000014
Bq     0.453355    -0.000045     1.000015
Bq     0.473066    -0.000045     1.000015
Bq     0.492777    -0.000046     1.000016
Bq     0.512488    -0.000047     1.000017
Bq     0.532200    -0.000048     1.000017
Bq     0.551911    -0.000048     1.000018
Bq     0.571622    -0.000049     1.000019
Bq     0.591333    -0.000050     1.000019
Bq     0.611044    -0.000051     1.000020
Bq     0.630755    -0.000052     1.000021
Bq     0.650466    -0.000052     1.000021
Bq     0.670178    -0.000053     1.000022
Bq     0.689889    -0.000054     1.000023
Bq     0.709600    -0.000055     1.000023
Bq     0.729311    -0.000056     1.000024
Bq     0.749022    -0.000056     1.000025
Bq     0.768733    -0.000057     1.000025
Bq     0.788445    -0.000058     1.000026
Bq     0.808156    -0.000059     1.000026
Bq     0.827867    -0.000059     1.000027
Bq     0.847578    -0.000060     1.000028
Bq     0.867289    -0.000061     1.000028
Bq     0.887000    -0.000062     1.000029
Bq     0.906712    -0.000063     1.000030
Bq     0.926423    -0.000063     1.000030
Bq     0.946134    -0.000064     1.000031
Bq     0.965845    -0.000065     1.000032
Bq     0.985556    -0.000066     1.000032
Bq     1.005267    -0.000066     1.000033
Bq     1.024978    -0.000067     1.000034
Bq     1.044690    -0.000068     1.000034
Bq     1.064401    -0.000069     1.000035
Bq     1.084112    -0.000070     1.000035
Bq     1.103823    -0.000070     1.000036
Bq     1.123534    -0.000071     1.000037
Bq     1.143245    -0.000072     1.000037
Bq     1.162957    -0.000073     1.000038
Bq     1.182668    -0.000073     1.000039
Bq     1.202379    -0.000074     1.000039
Bq     1.222090    -0.000075     1.000040
Bq     1.241923    -0.000074     1.000040
Bq     1.261755    -0.000073     1.000040
Bq     1.281588    -0.000072     1.000041
Bq     1.301421    -0.000071     1.000041
Bq     1.321254    -0.000070     1.000041
Bq     1.341086    -0.000069     1.000041
Bq     1.360919    -0.000068     1.000041
Bq     1.380752    -0.000067     1.000042
Bq     1.400584    -0.000066     1.000042
Bq     1.420417    -0.000065     1.000042
Bq     1.440250    -0.000063     1.000042
Bq     1.460083    -0.000062     1.000042
Bq     1.479915    -0.000061     1.000042
Bq     1.499748    -0.000060     1.000043
Bq     1.519581    -0.000059     1.000043
Bq     1.539413    -0.000058     1.000043
Bq     1.559246    -0.000057     1.000043
Bq     1.579079    -0.000056     1.000043
Bq     1.598912    -0.000055     1.000044
Bq     1.618744    -0.000054     1.000044
Bq     1.638577    -0.000053     1.000044
Bq     1.658410    -0.000052     1.000044
Bq     1.678242    -0.000051     1.000044
Bq     1.698075    -0.000050     1.000045
Bq     1.717908    -0.000049     1.000045
Bq     1.737741    -0.000048     1.000045
Bq     1.757573    -0.000047     1.000045
Bq     1.777406    -0.000046     1.000045
Bq     1.797239    -0.000045     1.000045
Bq     1.817071    -0.000044     1.000046
Bq     1.836904    -0.000042     1.000046
Bq     1.856737    -0.000041     1.000046
Bq     1.876570    -0.000040     1.000046
Bq     1.896402    -0.000039     1.000046
Bq     1.916235    -0.000038     1.000047
Bq     1.936068    -0.000037     1.000047
Bq     1.955900    -0.000036     1.000047
Bq     1.975733    -0.000035     1.000047
Bq     1.995566    -0.000034     1.000047
Bq     2.015399    -0.000033     1.000048
Bq     2.035231    -0.000032     1.000048
Bq     2.055064    -0.000031     1.000048
Bq     2.074897    -0.000030     1.000048
Bq     2.094729    -0.000029     1.000048
Bq     2.114562    -0.000028     1.000048
Bq     2.134395    -0.000027     1.000049
Bq     2.154228    -0.000026     1.000049
Bq     2.174060    -0.000025     1.000049
Bq     2.193893    -0.000024     1.000049
Bq     2.213726    -0.000023     1.000049
Bq     2.233558    -0.000022     1.000050
Bq     2.253391    -0.000020     1.000050
Bq     2.273224    -0.000019     1.000050
Bq     2.293057    -0.000018     1.000050
Bq     2.312889    -0.000017     1.000050
Bq     2.332722    -0.000016     1.000051
Bq     2.352555    -0.000015     1.000051
Bq     2.372387    -0.000014     1.000051
Bq     2.392220    -0.000013     1.000051
Bq     2.412053    -0.000012     1.000051
Bq     2.431886    -0.000011     1.000051
Bq     2.451718    -0.000010     1.000052
Bq     2.461634     0.017070     1.000055
Bq     2.471550     0.034150     1.000058
Bq     2.481466     0.051230     1.000061
Bq     2.491382     0.068309     1.000063
Bq     2.501298     0.085389     1.000066
Bq     2.511213     0.102469     1.000069
Bq     2.521129     0.119549     1.000072
Bq     2.531045     0.136629     1.000075
Bq     2.540961     0.153709     1.000078
Bq     2.550877     0.170788     1.000081
Bq     2.560793     0.187868     1.000084
Bq     2.570708     0.204948     1.000087
Bq     2.580624     0.222028     1.000090
Bq     2.590540     0.239108     1.000093
Bq     2.600456     0.256188     1.000096
Bq     2.610372     0.273267     1.000099
Bq     2.620287     0.290347     1.000102
Bq     2.630203     0.307427     1.000105
Bq     2.640119     0.324507     1.000108
Bq     2.650035     0.341587     1.000111
Bq     2.659951     0.358667     1.000114
Bq     2.669867     0.375746     1.000117
Bq     2.679782     0.392826     1.000120
Bq     2.689698     0.409906     1.000123
Bq     2.699614     0.426986     1.000126
Bq     2.709530     0.444066     1.000129
Bq     2.719446     0.461146     1.000132
Bq     2.729362     0.478225     1.000134
Bq     2.739278     0.495305     1.000137
Bq     2.749193     0.512385     1.000140
Bq     2.759109     0.529465     1.000143
Bq     2.769025     0.546545     1.000146
Bq     2.778941     0.563625     1.000149
Bq     2.788857     0.580705     1.000152
Bq     2.798773     0.597784     1.000155
Bq     2.808688     0.614864     1.000158
Bq     2.818604     0.631944     1.000161
Bq     2.828520     0.649024     1.000164
Bq     2.838436     0.666104     1.000167
Bq     2.848352     0.683184     1.000170
Bq     2.858268     0.700263     1.000173
Bq     2.868183     0.717343     1.000176
Bq     2.878099     0.734423     1.000179
Bq     2.888015     0.751503     1.000182
Bq     2.897931     0.768583     1.000185
Bq     2.907847     0.785663     1.000188
Bq     2.917763     0.802742     1.000191
Bq     2.927678     0.819822     1.000194
Bq     2.937594     0.836902     1.000197
Bq     2.947510     0.853982     1.000200
Bq     2.957426     0.871062     1.000202
Bq     2.967342     0.888142     1.000205
Bq     2.977257     0.905221     1.000208
Bq     2.987173     0.922301     1.000211
Bq     2.997089     0.939381     1.000214
Bq     3.007005     0.956461     1.000217
Bq     3.016921     0.973541     1.000220
Bq     3.026837     0.990621     1.000223
Bq     3.036752     1.007700     1.000226
Bq     3.046668     1.024780     1.000229
Bq     3.056584     1.041860     1.000232
Bq     3.066500     1.058940     1.000235

1
2
3
4
5
6
7
8
9
10
11
12
13
14
15
16
17
18
19
20
21
22
23
24
25
26
27
28
29
30
31
32
33
34
35
36
37
38
39
40
41
42
43
44
45
46
47
48
49
50
51
52
53
54
55
56
57
58
59
60
61
62
63
64
65
66
67
68
69
70
71
72
73
74
75
76
77
78
79
80
81
82
83
84
85
86
87
88
89
90
91
92
93
94
95
96
97
98
99
100
101
102
103
104
105
106
107
108
109
110
111
112
113
114
115
116
117
118
119
120
121
122
123
124
125
126
127
128
129
130
131
132
133
134
135
136
137
138
139
140
141
142
143
144
145
146
147
148
149
150
151
152
153
154
155
156
157
158
159
160
161
162
163
164
165
166
167
168
169
170
171
172
173
174
175
176
177
178
179
180
181
182
183
184
185
186
187
188
189
190
191
192
193
194
195
196
197
198
199
200
201
202
203
204
205
206
207
208
209
210
211
212
213
214
215
216
217
218
219
220
221
222
223
224
225
226
227
228
229
230
231
232
233
234
235
236
237
238
239
240
241
242
243
244
245
246
247
248
249
250
251
252
253
254
255
256
257
258
259
260
261
262
263
264
265
266
267
268
269
270
271
272
273
274
275
276
277
278
279
280
281
282
283
284
285
286
287
288
289
290
291
292
293
294
295
296
297
298
299
300
301
302
303
304
305
306
307
308
309
310
311
312
313
314
315
316
317
318
319
320
321
322
323
324
325
326
327
328
329
330
331
332
333
334
335
336
337
338
339
340
341
342
343
344
345
346
347
348
349
350
351
352
353
354
355
356
357
358
359
360
361
362
363
364
365
366
367
368
369
370
371
372
373
374
375
376
377
378
379
380
381
382
383
384
385
386
387
388
389
390
391
392
393
394
395
396
397
